&GLOBAL
  PROJECT bulk-cell_opt
  RUN_TYPE CELL_OPT
  PRINT_LEVEL LOW
&END GLOBAL

&FORCE_EVAL
  METHOD QS
  STRESS_TENSOR ANALYTICAL  
  &DFT
   LSD
    BASIS_SET_FILE_NAME BASIS_SET
    POTENTIAL_FILE_NAME GTH_POTENTIALS
 &QS
         EPS_DEFAULT 1e-12
         EXTRAPOLATION USE_PREV_P
      &END QS
      &POISSON
         PERIODIC XYZ
         POISSON_SOLVER PERIODIC
      &END POISSON

      # cutoff and rel_cutoff should be taken from 02_basis_set_conv
      &MGRID
         CUTOFF 1500
         NGRIDS 4
         REL_CUTOFF 80
      &END MGRID

      # The number of k-points should be taken from 03_kpoint_conv
      &KPOINTS
         SCHEME MONKHORST-PACK 4 4 6
      &END KPOINTS

      &SCF
         EPS_SCF 1e-06
         MAX_SCF 200
         &MIXING
            ALPHA 0.2
            METHOD BROYDEN_MIXING
            NBUFFER 15
         &END MIXING
         SCF_GUESS ATOMIC
      &END SCF

      &XC
         &XC_FUNCTIONAL PBE
         &END XC_FUNCTIONAL
      &END XC
#FOR PBEsol
#      &XC
#         &XC_FUNCTIONAL 
#           &PBE
#            PARAMETRIZATION PBESOL
#           &END PBE
#         &END XC_FUNCTIONAL
#      &END XC
#FOR R2SCAN
#      &XC
#         &XC_FUNCTIONAL 
#           &MGGA_X_R2SCAN
#           &END MGGA_X_R2SCAN
#           &MGGA_C_R2SCAN
#           &END MGGA_C_R2SCAN
#         &END XC_FUNCTIONAL
#      &END XC
    
   &END DFT
  &SUBSYS


     &CELL
      A 9.416600   0.000000   0.000000
      B -4.708300   8.155015   0.000000
      C   0.000000   0.000000   6.874500
      SYMMETRY HEXAGONAL_GAMMA_120
    &END CELL

    &COORD
Ca     4.708347   2.718311   0.009899
Ca     4.708253   2.718311   3.427351
Ca     0.000047   5.436704   3.447149
Ca     0.000000   5.436622   6.864601
Ca     8.191500   2.014778   1.718625
Ca     2.357399   0.053578   1.718625
Ca     2.350901   8.101436   5.155875
Ca     1.132299   2.068356   5.155875
Ca     3.576001   6.086658   1.718625
Ca    -3.483200   6.140237   5.155875
P       1.593948   3.251078   1.718625
P      -2.689758   5.149076   1.718625
P       7.398058   3.005938   5.155875
P       3.612490   0.245140   5.155875
P       1.095810   7.909875   1.718625
P       3.114352   4.903937   5.155875
O      3.018491   2.682184   1.718625
O      5.521894   4.199833   1.718625
O     -0.813594   3.955182   5.155875
O     -0.876215   6.882017   5.155875
O      5.584515   1.272998   1.718625
O      1.689809   5.472830   5.155875
O      1.613534   4.787809   1.718625
O     -1.368703   4.363748   1.718625
O      6.077003   3.791266   5.155875
O      4.953132   0.996543   5.155875
O     -0.244832   7.158472   1.718625
O      3.094766   3.367206   5.155875
O      0.812182   2.801248   0.483277
O     -2.688439   6.051021   2.953973
O      7.396739   2.103994   3.920527
O      2.832042   0.697254   6.391223
O      1.876258   7.457761   0.483277
O      0.812182   2.801248   2.953973
O      3.896118   5.353767   3.920527
O      7.396739   2.103994   6.391223
O     -2.688439   6.051021   0.483277
O      1.876258   7.457761   2.953973
O      2.832042   0.697254   3.920527
O      3.896118   5.353767   6.391223
O       0.000000   0.000000   2.076786
O       0.000000   0.000000   5.514036
H       0.000000   0.000000   3.162270
H       0.000000   0.000000   6.599520

  	&END COORD
  	
  	&KIND Ca
 BASIS_SET ORB TZVP-MOLOPT-PBE-GTH-q10
 POTENTIAL GTH-PBE-q10
&END KIND
&KIND P
  BASIS_SET ORB TZVP-MOLOPT-PBE-GTH-q5
  POTENTIAL GTH-PBE-q5
&END KIND
&KIND O
  BASIS_SET ORB TZVP-MOLOPT-PBE-GTH-q6
  POTENTIAL GTH-PBE-q6
&END KIND
&KIND H
  BASIS_SET ORB TZVP-MOLOPT-PBE-GTH-q1
  POTENTIAL GTH-PBE-q1
&END KIND  
  	
&END SUBSYS
  &PRINT
        &STRESS_TENSOR
        	ADD_LAST NUMERIC
        	COMPONENTS T
        	FILENAME new_stress_tensor.DAT
        &END STRESS_TENSOR
  &END PRINT

&END FORCE_EVAL
&MOTION
  &CELL_OPT
    OPTIMIZER BFGS
    &BFGS
     USE_MODEL_HESSIAN TRUE
     USE_RAT_FUN_OPT TRUE
    &END BFGS
    MAX_DR    1.0E-04
    MAX_FORCE 1.0E-04
    RMS_DR    1.0E-04
    RMS_FORCE 1.0E-04

    TYPE DIRECT_CELL_OPT
    KEEP_SYMMETRY TRUE
    &PRINT
      &CELL ON
      &END CELL
    &END PRINT
   KEEP_ANGLES TRUE
  &END
&END


