&CONTROL
  calculation = 'relax'
  etot_conv_thr =   4.8000000000d-06
  forc_conv_thr =   1.0000000000d-05
  outdir = './out/'
  pseudo_dir = './'
  tprnfor = .true.
  tstress = .true.
  verbosity = 'high'
  nstep = 200
/
&SYSTEM
  degauss =   7.3498618000d-03
  ecutrho =   10.000000000d+02
  ecutwfc =   9.00000000000d+01
  ibrav = 0
  nat = 42
  nosym = .true.
  ntyp = 4
  occupations = 'smearing'
  smearing = 'cold'
/
&ELECTRONS
  conv_thr =   9.6000000000d-09
  electron_maxstep = 80
  mixing_beta =   4.0000000000d-01
/
&IONS
    ion_dynamics = "bfgs"
/

&CELL
press_conv_thr = 2.0000000000d-01
/

ATOMIC_SPECIES
!Change the pseudopotential file for desired PP/XC combination
Ca     40.07800  Ca_pbesol.upf
O      15.99940  O_pbesol.upf
P      30.97376  P_pbesol.upf
F      18.99840  F_pbesol.upf

CELL_PARAMETERS (angstrom)
   9.331478171   0.000000889   0.000001571
  -4.665738315   8.081297082  -0.000000545
   0.000001145   0.000000203   6.833535935

ATOMIC_POSITIONS (crystal)
Ca            0.6666673346        0.3333331683        0.0007654874
Ca            0.6666658911        0.3333326456        0.4992345098
Ca            0.3333341100        0.6666667702        0.5007654902
Ca            0.3333326748        0.6666658487        0.9992345101
Ca            0.9960663162        0.2428735400        0.2499999260
Ca            0.2468073924        0.0039335197        0.2499998248
Ca            0.7531927085        0.9960660967        0.7500002761
Ca            0.2428737165        0.2468071774        0.7499996527
Ca            0.7571264864        0.7531925281        0.2500002637
Ca            0.0039336977        0.7571261486        0.7500000564
P             0.3686051100        0.3986579392        0.2499996158
P             0.0300528625        0.6313939658        0.2500001241
P             0.9699464383        0.3686043780        0.7499997904
P             0.3986586531        0.0300531967        0.7499998092
P             0.6013420317        0.9699470545        0.2500002952
P             0.6313942252        0.6013412743        0.7500003682
O             0.4856290081        0.3269453756        0.2499992973
O             0.8413167388        0.5143706992        0.2500002883
O             0.1586836378        0.4856290596        0.7499996560
O             0.3269455161        0.8413160909        0.7499997015
O             0.6730541020        0.1586828218        0.2500004350
O             0.5143710500        0.6730538967        0.7500006269
O             0.4671722685        0.5905442176        0.2499999109
O             0.1233722084        0.5328280025        0.2500009603
O             0.8766277130        0.4671719258        0.7499989263
O             0.5905440516        0.1233717745        0.7500007587
O             0.4094554096        0.8766272984        0.2499991793
O             0.5328280732        0.4094555655        0.7500002663
O             0.2550337608        0.3412540446        0.0683889673
O             0.0862199503        0.7449668440        0.4316106739
O             0.9137801024        0.2550329651        0.5683897372
O             0.3412529408        0.0862194801        0.9316103124
O             0.6587471350        0.9137800026        0.0683898741
O             0.2550337678        0.3412534152        0.4316102038
O             0.7449663503        0.6587461661        0.5683893692
O             0.9137797259        0.2550342099        0.9316106430
O             0.0862202070        0.7449657247        0.0683890384
O             0.6587451846        0.9137791256        0.4316111550
O             0.3412546356        0.0862202432        0.5683890030
O             0.7449666145        0.6587460297        0.9316110101
F             0.0000001114       -0.0000000715        0.2499999952
F             0.0000000875       -0.0000001594        0.7500000108
K_POINTS {automatic}
4 4 6 0 0 0