&GLOBAL
  PROJECT bulk-cell_opt
  RUN_TYPE GEO_OPT
  PRINT_LEVEL LOW
&END GLOBAL

&FORCE_EVAL
  METHOD QS
  STRESS_TENSOR ANALYTICAL  
  &DFT
   LSD
    BASIS_SET_FILE_NAME BASIS_SET
    POTENTIAL_FILE_NAME GTH_POTENTIALS
 &QS
         EPS_DEFAULT 1e-12
         EXTRAPOLATION USE_PREV_P
      &END QS
      &POISSON
         PERIODIC XYZ
         POISSON_SOLVER PERIODIC
      &END POISSON

      # cutoff and rel_cutoff should be taken from 02_basis_set_conv
      &MGRID
         CUTOFF 1500
         NGRIDS 4
         REL_CUTOFF 80
      &END MGRID

      # The number of k-points should be taken from 03_kpoint_conv
      &KPOINTS
         SCHEME MONKHORST-PACK 4 4 6
      &END KPOINTS

      &SCF
         EPS_SCF 1e-06
         MAX_SCF 200
         &MIXING
            ALPHA 0.2
            METHOD BROYDEN_MIXING
            NBUFFER 15
         &END MIXING
         SCF_GUESS ATOMIC
      &END SCF

      &XC
         &XC_FUNCTIONAL PBE
         &END XC_FUNCTIONAL
      &END XC
#FOR PBEsol
#      &XC
#         &XC_FUNCTIONAL 
#           &PBE
#            PARAMETRIZATION PBESOL
#           &END PBE
#         &END XC_FUNCTIONAL
#      &END XC
#FOR R2SCAN
#      &XC
#         &XC_FUNCTIONAL 
#           &MGGA_X_R2SCAN
#           &END MGGA_X_R2SCAN
#           &MGGA_C_R2SCAN
#           &END MGGA_C_R2SCAN
#         &END XC_FUNCTIONAL
#      &END XC
    
   &END DFT
  &SUBSYS


     &CELL
      A 9.535829   0.000000   0.000000
      B -4.768     8.258     0.000
      C   0.000000   0.000000   6.951487
    &END CELL

    &COORD
    SCALED
Ca      0.666675   0.333344   0.000599
Ca      0.666676   0.333345   0.499669
Ca      0.333350   0.666688   0.500599
Ca      0.333351   0.666689   0.999669
Ca      0.997079   0.249199   0.250439
Ca      0.252118   0.002927   0.250439
Ca      0.747907   0.997105   0.750439
Ca      0.249198   0.252127   0.750439
Ca      0.750828   0.747906   0.250439
Ca      0.002946   0.750833   0.750439
P       0.368119   0.398231   0.251716
P       0.030125   0.631912   0.251715
P       0.969900   0.368121   0.751716
P       0.398219   0.030110   0.751716
P       0.601807   0.969923   0.251715
P       0.631907   0.601802   0.751715
O       0.484758   0.328569   0.253154
O       0.843821   0.515266   0.253154
O       0.156204   0.484766   0.753154
O       0.328579   0.843836   0.753155
O       0.671446   0.156197   0.253154
O       0.515267   0.671464   0.753154
O       0.464089   0.587807   0.246557
O       0.123728   0.535944   0.246556
O       0.876298   0.464089   0.746557
O       0.587791   0.123718   0.746556
O       0.412234   0.876314   0.246557
O       0.535937   0.412226   0.746556
O       0.254260   0.337671   0.073258
O       0.089087   0.741457   0.433626
O       0.916598   0.254260   0.573258
O       0.347638   0.089071   0.933626
O       0.662363   0.916622   0.073258
O       0.258576   0.347646   0.433626
O       0.745765   0.662362   0.573258
O       0.910938   0.258575   0.933626
O       0.083427   0.745773   0.073258
O       0.652388   0.910962   0.433626
O       0.337661   0.083410   0.573258
O       0.741449   0.652386   0.933626
O      -0.000000  -0.000000   0.287086
O       0.000000  -0.000000   0.787086
H      -0.000000   0.000000   0.428122
H      -0.000000   0.000000   0.928122

  	&END COORD
  	
  	&KIND Ca
 BASIS_SET ORB TZVP-MOLOPT-PBE-GTH-q10
 POTENTIAL GTH-PBE-q10
&END KIND
&KIND P
  BASIS_SET ORB TZVP-MOLOPT-PBE-GTH-q5
  POTENTIAL GTH-PBE-q5
&END KIND
&KIND O
  BASIS_SET ORB TZVP-MOLOPT-PBE-GTH-q6
  POTENTIAL GTH-PBE-q6
&END KIND
&KIND H
  BASIS_SET ORB TZVP-MOLOPT-PBE-GTH-q1
  POTENTIAL GTH-PBE-q1
&END KIND  
  	
&END SUBSYS
  &PRINT
        &STRESS_TENSOR
        	ADD_LAST NUMERIC
        	COMPONENTS T
        	FILENAME new_stress_tensor.DAT
        &END STRESS_TENSOR
  &END PRINT

&END FORCE_EVAL
&MOTION
  &GEO_OPT
    TYPE MINIMIZATION
    MAX_DR    1.0E-04
    MAX_FORCE 1.0E-04
    RMS_DR    1.0E-04
    RMS_FORCE 1.0E-04
    MAX_ITER 200
    OPTIMIZER BFGS
  &END GEO_OPT
  &PRINT
	&STRESS
		ADD_LAST NUMERIC
		FILENAME cell_opt
	&END STRESS
  &END PRINT
&END MOTION