&CONTROL
  calculation = 'vc-relax'
  etot_conv_thr =   4.8000000000d-06
  forc_conv_thr =   1.0000000000d-05
  outdir = './out/'
  pseudo_dir = './'
  tprnfor = .true.
  tstress = .true.
  verbosity = 'high'
/
&SYSTEM
  degauss =   7.3498618000d-03
  ecutrho =   9.0000000000d+02
  ecutwfc =   9.00000000000d+01
  ibrav = 0
  nat = 42
  nosym = .false.
  ntyp = 4
  occupations = 'smearing'
  smearing = 'cold'
/
&ELECTRONS
  conv_thr =   9.6000000000d-09
  electron_maxstep = 80
  mixing_beta =   4.0000000000d-01
/
&IONS
    ion_dynamics = "bfgs"
/

&CELL
/

ATOMIC_SPECIES
!Change the pseudopotential file for desired PP/XC combination
Ca     40.078 Ca_paw_pbe.upf
Cl    35.45270  Cl_paw_pbe.upf
O      15.9994 O_paw_pbe.upf
P      30.973761 P_paw_pbe.upf

CELL_PARAMETERS (angstrom)
   9.872311879   0.000000000   0.000000000
  -4.936155940   8.549673175  -0.000000000
  -0.000000000  -0.000000000   6.698168810

ATOMIC_POSITIONS (angstrom)
Ca            4.9361581252        2.8498896667        0.0331442632
Ca           -0.0000021853        5.6997835079        3.3822286681
Ca           -0.0000021853        5.6997835079        6.6650245465
Ca            4.9361581252        2.8498896667        3.3159401417
Ca           -1.0784291316        2.2855882064        1.6745422025
Ca            3.4959920296        6.4729295011        1.6745422025
Ca           -2.4175635067        8.3408220366        1.6745422025
Ca            6.0145850715        6.2640849682        5.0236266074
Ca            1.4401639103        2.0767436735        5.0236266074
Ca            7.3537194465        0.2088511380        5.0236266074
P             1.7267175448        3.5259254076        1.6745422025
P             1.0192627183        8.2820891714        1.6745422025
P            -2.7459776111        5.2913328095        1.6745422025
P             3.2094383950        5.0237477670        5.0236266074
P             3.9168932215        0.2675840032        5.0236266074
P             7.6821335509        3.2583403651        5.0236266074
O             3.1968867419        3.0588454646        1.6745422025
O             5.6248409468        1.2391662352        1.6745422025
O             5.9867418960        4.2516704994        1.6745422025
O             1.7392691979        5.4908277100        5.0236266074
O            -0.6886850068        7.3105059103        5.0236266074
O            -1.0505859562        4.2980026752        5.0236266074
O             1.6344343973        5.0939134038        1.6745422025
O            -0.2925213452        7.4181867931        1.6745422025
O            -1.3419217627        4.5872518064        1.6745422025
O             3.3017215426        3.4557587417        5.0236266074
O             5.2286772850        1.1314863815        5.0236266074
O             6.2780777025        3.9624213682        5.0236266074
O             0.9394844274        3.0277366326        0.4269970775
O             1.8443152910        7.8494219945        0.4269963019
O            -2.7838012106        6.2221864833        0.4269961766
O             3.9966715124        5.5219365420        3.7760814824
O             3.0918406489        0.7002511801        3.7760807068
O             7.7199571505        2.3274866913        3.7760805815
O             3.9966715124        5.5219365420        6.2711717323
O             3.0918406489        0.7002511801        6.2711725080
O             7.7199571505        2.3274866913        6.2711726331
O             0.9394844274        3.0277366326        2.9220873274
O             1.8443152910        7.8494219945        2.9220881031
O            -2.7838012106        6.2221864833        2.9220882283
Cl            0.0000000000        0.0000000000       -0.0000000000
Cl            0.0000000000       -0.0000000000        3.3490844049
K_POINTS automatic
4 4 6 0 0 0
