&CONTROL
  calculation = 'vc-relax'
  etot_conv_thr =   4.8000000000d-06
  forc_conv_thr =   1.0000000000d-05
  outdir = './out/'
  pseudo_dir = './'
  tprnfor = .true.
  tstress = .true.
  verbosity = 'high'
/
&SYSTEM
  degauss =   7.3498618000d-03
  ecutrho =   9.0000000000d+02
  ecutwfc =   9.00000000000d+01
  ibrav = 0
  nat = 42
  nosym = .false.
  ntyp = 4
  occupations = 'smearing'
  smearing = 'cold'
/
&ELECTRONS
  conv_thr =   9.6000000000d-09
  electron_maxstep = 80
  mixing_beta =   4.0000000000d-01
/
&IONS
    ion_dynamics = "bfgs"
/

&CELL
/

ATOMIC_SPECIES
!Change the pseudopotential file for desired PP/XC combination
Ca     40.078 Ca_paw_pbe.upf
Cl    35.45270  Cl_paw_pbe.upf
O      15.9994 O_paw_pbe.upf
P      30.973761 P_paw_pbe.upf

ATOMIC_POSITIONS (angstrom)
Ca            4.9422921222        2.8534311281        0.0348047464
Ca           -0.0000021880        5.7068664359        3.3790590389
Ca           -0.0000021880        5.7068664359        6.6537038386
Ca            4.9422921222        2.8534311281        3.3094495461
Ca           -1.0741642512        2.2917388731        1.6721271463
Ca            3.4946669485        6.4841720487        1.6721271463
Ca           -2.4205033068        8.3446775929        1.6721271463
Ca            6.0164541854        6.2685586909        5.0163814388
Ca            1.4476229857        2.0761255153        5.0163814388
Ca            7.3627932409        0.2156199711        5.0163814388
P             1.7315127882        3.5318613526        1.6721271463
P             1.0178584195        8.2938983875        1.6721271463
P            -2.7493685524        5.2948364285        1.6721271463
P             3.2107771459        5.0284362114        5.0163814388
P             3.9244315146        0.2663991765        5.0163814388
P             7.6916584865        3.2654611355        5.0163814388
O             3.2063225040        3.0685953701        1.6721271463
O             5.6239474008        1.2424628965        1.6721271463
O             5.9966016649        4.2492483332        1.6721271463
O             1.7359674301        5.4917021939        5.0163814388
O            -0.6816574666        7.3178336371        5.0163814388
O            -1.0543117308        4.3110492308        5.0163814388
O             1.6343264877        5.1028665208        1.6721271463
O            -0.2940870254        7.4242411822        1.6721271463
O            -1.3402481837        4.5934930861        1.6721271463
O             3.3079634465        3.4574300128        5.0163814388
O             5.2363769595        1.1360563818        5.0163814388
O             6.2825381178        3.9668044779        5.0163814388
O             0.9427656274        3.0306396048        0.4224964687
O             1.8462946354        7.8614365000        0.4224956942
O            -2.7890617569        6.2285177829        0.4224955691
O             3.9995243067        5.5296579592        3.7667507612
O             3.0959952988        0.6988610640        3.7667499867
O             7.7313516911        2.3317797811        3.7667498616
O             3.9995243067        5.5296579592        6.2660121163
O             3.0959952988        0.6988610640        6.2660128909
O             7.7313516911        2.3317797811        6.2660130159
O             0.9427656274        3.0306396048        2.9217578238
O             1.8462946354        7.8614365000        2.9217585984
O            -2.7890617569        6.2285177829        2.9217587234
Cl            0.0000000000       -0.0000000000        0.0000000000
Cl            0.0000000000       -0.0000000000        3.3442542925
K_POINTS automatic
4 4 6 0 0 0
CELL_PARAMETERS (angstrom)
   9.884579868  -0.000000000  -0.000000000
  -4.942289934   8.560297564   0.000000000
   0.000000000  -0.000000000   6.688508585
