&GLOBAL
  PROJECT bulk-cell_opt
  RUN_TYPE CELL_OPT
  PRINT_LEVEL LOW
&END GLOBAL

&FORCE_EVAL
  METHOD QS
  STRESS_TENSOR ANALYTICAL  
  &DFT
   LSD
    BASIS_SET_FILE_NAME BASIS_SET
    POTENTIAL_FILE_NAME GTH_POTENTIALS
 &QS
         EPS_DEFAULT 1e-12
         EXTRAPOLATION USE_PREV_P
      &END QS
      &POISSON
         PERIODIC XYZ
         POISSON_SOLVER PERIODIC
      &END POISSON

      # cutoff and rel_cutoff should be taken from 02_basis_set_conv
      &MGRID
         CUTOFF 1500
         NGRIDS 4
         REL_CUTOFF 80
      &END MGRID

      # The number of k-points should be taken from 03_kpoint_conv
      &KPOINTS
         SCHEME MONKHORST-PACK 4 4 6
      &END KPOINTS

      &SCF
         EPS_SCF 1e-06
         MAX_SCF 200
         &MIXING
            ALPHA 0.2
            METHOD BROYDEN_MIXING
            NBUFFER 15
         &END MIXING
         SCF_GUESS ATOMIC
      &END SCF

      &XC
         &XC_FUNCTIONAL PBE
         &END XC_FUNCTIONAL
      &END XC
#FOR PBEsol
#      &XC
#         &XC_FUNCTIONAL 
#           &PBE
#            PARAMETRIZATION PBESOL
#           &END PBE
#         &END XC_FUNCTIONAL
#      &END XC
#FOR R2SCAN
#      &XC
#         &XC_FUNCTIONAL 
#           &MGGA_X_R2SCAN
#           &END MGGA_X_R2SCAN
#           &MGGA_C_R2SCAN
#           &END MGGA_C_R2SCAN
#         &END XC_FUNCTIONAL
#      &END XC
    
   &END DFT
  &SUBSYS


     &CELL
      A  9.593000   0.000000   0.000000
      B -4.796500   8.307782   0.000000
      C 0.000000   0.000000   6.776300
      SYMMETRY HEXAGONAL_GAMMA_120
    &END CELL

    &COORD
Ca    4.796980   2.768984   0.018296
Ca   -0.000480   5.538798   3.406446
Ca   -0.000480   5.538798   6.758004
Ca    4.796980   2.768984   3.369854
Ca   -1.224978   2.140334   1.694075
Ca    3.555406   6.176753   1.694075
Ca   -2.330427   8.298477   1.694075
Ca    6.021478   6.167448   5.082225
Ca    1.241094   2.131029   5.082225
Ca    7.126927   0.009305   5.082225
P     1.637381   3.371381   1.694075
P     1.058108   8.040105   1.694075
P    -2.695489   5.204078   1.694075
P     3.159119   4.936401   5.082225
P     3.738392   0.267677   5.082225
P     7.491989   3.103704   5.082225
O     3.070240   2.827138   1.694075
O     5.609507   1.245336   1.694075
O     5.709754   4.235307   1.694075
O     1.726260   5.480644   5.082225
O    -0.813007   7.062445   5.082225
O    -0.913254   4.072475   5.082225
O     1.630810   4.908237   1.694075
O    -0.269563   7.265986   1.694075
O    -1.361247   4.441340   1.694075
O     3.165690   3.399544   5.082225
O     5.066063   1.041796   5.082225
O     6.157747   3.866442   5.082225
O     0.857614   2.926001   0.463499
O     1.833702   7.587497   0.463499
O    -2.691316   6.102066   0.463499
O     3.938886   5.381781   3.851649
O     2.962798   0.720285   3.851649
O     7.487816   2.205716   3.851649
O     3.938886   5.381781   6.312801
O     2.962798   0.720285   6.312801
O     7.487816   2.205716   6.312801
O     0.857614   2.926001   2.924651
O     1.833702   7.587497   2.924651
O    -2.691316   6.102066   2.924651
Cl    0.000000   0.000000   0.000000
Cl    0.000000   0.000000   3.388150


  	&END COORD
  	
  	&KIND Ca
 BASIS_SET ORB TZVP-MOLOPT-PBE-GTH-q10
 POTENTIAL GTH-PBE-q10
&END KIND
&KIND P
  BASIS_SET ORB TZVP-MOLOPT-PBE-GTH-q5
  POTENTIAL GTH-PBE-q5
&END KIND
&KIND O
  BASIS_SET ORB TZVP-MOLOPT-PBE-GTH-q6
  POTENTIAL GTH-PBE-q6
&END KIND
&KIND Cl
  BASIS_SET ORB TZVP-MOLOPT-PBE-GTH-q7
  POTENTIAL GTH-PBE-q7
&END KIND   
  	
&END SUBSYS
  &PRINT
        &STRESS_TENSOR
        	ADD_LAST NUMERIC
        	COMPONENTS T
        	FILENAME new_stress_tensor.DAT
        &END STRESS_TENSOR
  &END PRINT

&END FORCE_EVAL
&MOTION
  &CELL_OPT
    OPTIMIZER BFGS
    &BFGS
     USE_MODEL_HESSIAN TRUE
     USE_RAT_FUN_OPT TRUE
    &END BFGS
    MAX_DR    1.0E-04
    MAX_FORCE 1.0E-04
    RMS_DR    1.0E-04
    RMS_FORCE 1.0E-04

    TYPE DIRECT_CELL_OPT
    KEEP_SYMMETRY TRUE
    &PRINT
      &CELL ON
      &END CELL
    &END PRINT
   KEEP_ANGLES TRUE
  &END
&END

