&CONTROL
  calculation = 'relax'
  etot_conv_thr =   4.8000000000d-06
  forc_conv_thr =   1.0000000000d-05
  outdir = './out/'
  pseudo_dir = './'
  tprnfor = .true.
  tstress = .true.
  verbosity = 'high'
/
&SYSTEM
  degauss =   7.3498618000d-03
  ecutrho =   9.0000000000d+02
  ecutwfc =   9.00000000000d+01
  ibrav = 0
  nat = 44
  nosym = .false.
  ntyp = 4
  occupations = 'smearing'
  smearing = 'cold'
/
&ELECTRONS
  conv_thr =   9.6000000000d-09
  electron_maxstep = 80
  mixing_beta =   4.0000000000d-01
/
&IONS
    ion_dynamics = "bfgs"
/
&CELL
/
ATOMIC_SPECIES
P      30.97376  P_pbesol.upf
O      15.99940  O_pbesol.upf
H       1.00794  H_oncv_pbesol.upf
Ca     40.07800  Ca_pbesol.upf
!for PBE change the pseudopotential files
!P      30.97376  P.upf
!O      15.99940  O.upf
!H       1.00794  H.upf
!Ca     40.07800  Ca.upf

CELL_PARAMETERS (angstrom)
   9.389978199  -0.000000000  -0.000000000
  -4.694989099   8.131959844   0.000000000
  -0.000000000  -0.000000000   6.822644815

ATOMIC_POSITIONS (crystal)
Ca            0.6666670000        0.3333330000        0.0020730338
Ca            0.3333330000        0.6666670000        0.9996888491
Ca            0.3333330000        0.6666670000        0.5020730338
Ca            0.6666670000        0.3333330000        0.4996888491
Ca            0.9972013152        0.2488861115        0.2513288438
Ca            0.0027986848        0.7511138885        0.7513288438
Ca            0.7511138884        0.7483152037        0.2513288438
Ca            0.2488861116        0.2516847963        0.7513288438
Ca            0.2516847963        0.0027986848        0.2513288438
Ca            0.7483152037        0.9972013152        0.7513288438
P             0.3682357926        0.3995276782        0.2524986896
P             0.6317642074        0.6004723218        0.7524986896
P             0.6004723217        0.9687081144        0.2524986896
P             0.3995276783        0.0312918856        0.7524986896
P             0.0312918856        0.6317642074        0.2524986896
P             0.9687081144        0.3682357926        0.7524986896
O             0.4863458982        0.3302685462        0.2539159570
O             0.5136541018        0.6697314538        0.7539159570
O             0.6697314537        0.1560773520        0.2539159570
O             0.3302685463        0.8439226480        0.7539159570
O             0.8439226481        0.5136541018        0.2539159570
O             0.1560773519        0.4863458982        0.7539159570
O             0.4649676283        0.5903687607        0.2472920133
O             0.5350323717        0.4096312393        0.7472920133
O             0.4096312392        0.8745988675        0.2472920133
O             0.5903687608        0.1254011325        0.7472920133
O             0.1254011326        0.5350323716        0.2472920133
O             0.8745988674        0.4649676284        0.7472920133
O             0.2536075376        0.3380366872        0.0720457324
O             0.7419441207        0.6517808097        0.9365483802
O             0.6619633130        0.9155708505        0.0720457324
O             0.3482191904        0.0901633109        0.9365483802
O             0.0844291494        0.7463924624        0.0720457324
O             0.9098366889        0.2580558794        0.9365483802
O             0.7463924624        0.6619633128        0.5720457324
O             0.2580558793        0.3482191903        0.4365483802
O             0.3380366870        0.0844291495        0.5720457324
O             0.6517808096        0.9098366891        0.4365483802
O             0.9155708506        0.2536075376        0.5720457324
O             0.0901633111        0.7419441206        0.4365483802
O             0.0000000000        0.0000000000        0.7882859235
O             0.0000000000        0.0000000000        0.2882859235
H            -0.0000000000       -0.0000000000        0.9311633444
H             0.0000000000        0.0000000000        0.4311633444
K_POINTS automatic
4 4 6 0 0 0
