&CONTROL
  calculation = 'vc-relax'
  etot_conv_thr =   4.8000000000d-06
  forc_conv_thr =   1.0000000000d-05
  outdir = './out/'
  pseudo_dir = './'
  tprnfor = .true.
  tstress = .true.
  verbosity = 'high'
  nstep = 200
/
&SYSTEM
  degauss =   7.3498618000d-03
  ecutrho =   10.000000000d+02
  ecutwfc =   9.00000000000d+01
  ibrav = 0
  nat = 42
  nosym = .true.
  ntyp = 4
  occupations = 'smearing'
  smearing = 'cold'
/
&ELECTRONS
  conv_thr =   9.6000000000d-09
  electron_maxstep = 80
  mixing_beta =   4.0000000000d-01
/
&IONS
    ion_dynamics = "bfgs"
/

&CELL
press_conv_thr = 2.0000000000d-01
/

CELL_PARAMETERS {angstrom}
  9.397300   0.000000   0.000000
 -4.698650   8.138301   0.000000
  0.000000   0.000000   6.878200

ATOMIC_SPECIES
!Change the pseudopotential file for PBE
Ca     40.07800  Ca_pbesol.upf
O      15.99940  O_pbesol.upf
P      30.97376  P_pbesol.upf
F      18.99840  F_pbesol.upf

ATOMIC_POSITIONS {crystal}
Ca      0.666670   0.333330   0.001000
Ca      0.666660   0.333330   0.499000
Ca      0.333340   0.666670   0.501000
Ca      0.333330   0.666660   0.999000
Ca      0.992880   0.242270   0.250000
Ca      0.249390   0.007120   0.250000
Ca      0.750610   0.992880   0.750000
Ca      0.242270   0.249390   0.750000
Ca      0.757730   0.750610   0.250000
Ca      0.007120   0.757730   0.750000
P       0.368950   0.398500   0.250000
P       0.029550   0.631050   0.250000
P       0.970450   0.368950   0.750000
P       0.398500   0.029550   0.750000
P       0.601500   0.970450   0.250000
P       0.631050   0.601500   0.750000
O       0.484900   0.327300   0.250000
O       0.842400   0.515100   0.250000
O       0.157600   0.484900   0.750000
O       0.327300   0.842400   0.750000
O       0.672700   0.157600   0.250000
O       0.515100   0.672700   0.750000
O       0.466700   0.587500   0.250000
O       0.120800   0.533300   0.250000
O       0.879200   0.466700   0.750000
O       0.587500   0.120800   0.750000
O       0.412500   0.879200   0.250000
O       0.533300   0.412500   0.750000
O       0.257500   0.342100   0.070500
O       0.084600   0.742500   0.429500
O       0.915400   0.257500   0.570500
O       0.342100   0.084600   0.929500
O       0.657900   0.915400   0.070500
O       0.257500   0.342100   0.429500
O       0.742500   0.657900   0.570500
O       0.915400   0.257500   0.929500
O       0.084600   0.742500   0.070500
O       0.657900   0.915400   0.429500
O       0.342100   0.084600   0.570500
O       0.742500   0.657900   0.929500
F       0.000000   0.000000   0.250000
F       0.000000   0.000000   0.750000
K_POINTS {automatic}
4 4 6 0 0 0